p cnf 1572
-19 -495
-20 -498
-21 -501
-22 -504
-23 -507
-24 -510
-25 -513
-26 -516
-27 -519
-28 -522
-29 -525
-30 -528
-31 -531
-32 -534
-33 -537
-34 -540
-35 -543
-36 -546
-37 547
-38 548
-39 549
-40 550
-41 551
-42 552
-43 553
-44 554
-45 555
-46 556
-47 557
-48 558
-49 559
-50 560
-51 561
-52 562
-53 563
-54 -20
-54 -21
20 21 54
-55 -22
-55 -23
22 23 55
-56 -24
-56 -25
24 25 56
-57 -26
-57 -27
26 27 57
-58 -28
-58 -29
28 29 58
-59 -30
-59 -31
30 31 59
-60 -32
-60 -33
32 33 60
-61 -34
-61 -35
34 35 61
-62 -36
-62 -37
36 37 62
-63 -38
-63 -39
38 39 63
-64 -40
-64 -41
40 41 64
-65 -42
-65 -43
42 43 65
-66 -44
-66 -45
44 45 66
-67 -46
-67 -47
46 47 67
-68 -48
-68 -49
48 49 68
-69 -50
-69 -51
50 51 69
-70 -52
-70 -53
52 53 70
-71 54
-71 55
-54 -55 71
-72 56
-72 57
-56 -57 72
-73 58
-73 59
-58 -59 73
-74 60
-74 61
-60 -61 74
-75 62
-75 63
-62 -63 75
-76 64
-76 65
-64 -65 76
-77 66
-77 67
-66 -67 77
-78 68
-78 69
-68 -69 78
-79 71
-79 72
-71 -72 79
-80 73
-80 74
-73 -74 80
-81 75
-81 76
-75 -76 81
-82 77
-82 78
-77 -78 82
-83 79
-83 80
-79 -80 83
-84 81
-84 82
-81 -82 84
-85 83
-85 84
-83 -84 85
-86 70
-86 85
-70 -85 86
-87 -19
-87 20
19 -20 87
-88 19
-88 -20
-19 20 88
-89 -87
-89 -88
87 88 89
-90 19
-90 20
-19 -20 90
-91 -19
-91 -89
19 89 91
-92 19
-92 89
-19 -89 92
-93 -91
-93 -92
91 92 93
-94 19
-94 -89
-19 89 94
-95 -90
-95 -94
90 94 95
-96 -20
-96 21
20 -21 96
-97 20
-97 -21
-20 21 97
-98 -96
-98 -97
96 97 98
-99 20
-99 21
-20 -21 99
-100 95
-100 -98
-95 98 100
-101 -95
-101 98
95 -98 101
-102 -100
-102 -101
100 101 102
-103 -95
-103 -98
95 98 103
-104 -99
-104 -103
99 103 104
-105 -21
-105 22
21 -22 105
-106 21
-106 -22
-21 22 106
-107 -105
-107 -106
105 106 107
-108 21
-108 22
-21 -22 108
-109 104
-109 -107
-104 107 109
-110 -104
-110 107
104 -107 110
-111 -109
-111 -110
109 110 111
-112 -104
-112 -107
104 107 112
-113 -108
-113 -112
108 112 113
-114 -22
-114 23
22 -23 114
-115 22
-115 -23
-22 23 115
-116 -114
-116 -115
114 115 116
-117 22
-117 23
-22 -23 117
-118 113
-118 -116
-113 116 118
-119 -113
-119 116
113 -116 119
-120 -118
-120 -119
118 119 120
-121 -113
-121 -116
113 116 121
-122 -117
-122 -121
117 121 122
-123 -23
-123 24
23 -24 123
-124 23
-124 -24
-23 24 124
-125 -123
-125 -124
123 124 125
-126 23
-126 24
-23 -24 126
-127 122
-127 -125
-122 125 127
-128 -122
-128 125
122 -125 128
-129 -127
-129 -128
127 128 129
-130 -122
-130 -125
122 125 130
-131 -126
-131 -130
126 130 131
-132 -24
-132 25
24 -25 132
-133 24
-133 -25
-24 25 133
-134 -132
-134 -133
132 133 134
-135 24
-135 25
-24 -25 135
-136 131
-136 -134
-131 134 136
-137 -131
-137 134
131 -134 137
-138 -136
-138 -137
136 137 138
-139 -131
-139 -134
131 134 139
-140 -135
-140 -139
135 139 140
-141 -25
-141 26
25 -26 141
-142 25
-142 -26
-25 26 142
-143 -141
-143 -142
141 142 143
-144 25
-144 26
-25 -26 144
-145 140
-145 -143
-140 143 145
-146 -140
-146 143
140 -143 146
-147 -145
-147 -146
145 146 147
-148 -140
-148 -143
140 143 148
-149 -144
-149 -148
144 148 149
-150 -26
-150 27
26 -27 150
-151 26
-151 -27
-26 27 151
-152 -150
-152 -151
150 151 152
-153 26
-153 27
-26 -27 153
-154 149
-154 -152
-149 152 154
-155 -149
-155 152
149 -152 155
-156 -154
-156 -155
154 155 156
-157 -149
-157 -152
149 152 157
-158 -153
-158 -157
153 157 158
-159 -27
-159 28
27 -28 159
-160 27
-160 -28
-27 28 160
-161 -159
-161 -160
159 160 161
-162 27
-162 28
-27 -28 162
-163 158
-163 -161
-158 161 163
-164 -158
-164 161
158 -161 164
-165 -163
-165 -164
163 164 165
-166 -158
-166 -161
158 161 166
-167 -162
-167 -166
162 166 167
-168 -28
-168 29
28 -29 168
-169 28
-169 -29
-28 29 169
-170 -168
-170 -169
168 169 170
-171 28
-171 29
-28 -29 171
-172 167
-172 -170
-167 170 172
-173 -167
-173 170
167 -170 173
-174 -172
-174 -173
172 173 174
-175 -167
-175 -170
167 170 175
-176 -171
-176 -175
171 175 176
-177 -29
-177 30
29 -30 177
-178 29
-178 -30
-29 30 178
-179 -177
-179 -178
177 178 179
-180 29
-180 30
-29 -30 180
-181 176
-181 -179
-176 179 181
-182 -176
-182 179
176 -179 182
-183 -181
-183 -182
181 182 183
-184 -176
-184 -179
176 179 184
-185 -180
-185 -184
180 184 185
-186 -30
-186 31
30 -31 186
-187 30
-187 -31
-30 31 187
-188 -186
-188 -187
186 187 188
-189 30
-189 31
-30 -31 189
-190 185
-190 -188
-185 188 190
-191 -185
-191 188
185 -188 191
-192 -190
-192 -191
190 191 192
-193 -185
-193 -188
185 188 193
-194 -189
-194 -193
189 193 194
-195 -31
-195 32
31 -32 195
-196 31
-196 -32
-31 32 196
-197 -195
-197 -196
195 196 197
-198 31
-198 32
-31 -32 198
-199 194
-199 -197
-194 197 199
-200 -194
-200 197
194 -197 200
-201 -199
-201 -200
199 200 201
-202 -194
-202 -197
194 197 202
-203 -198
-203 -202
198 202 203
-204 -32
-204 33
32 -33 204
-205 32
-205 -33
-32 33 205
-206 -204
-206 -205
204 205 206
-207 32
-207 33
-32 -33 207
-208 203
-208 -206
-203 206 208
-209 -203
-209 206
203 -206 209
-210 -208
-210 -209
208 209 210
-211 -203
-211 -206
203 206 211
-212 -207
-212 -211
207 211 212
-213 -33
-213 34
33 -34 213
-214 33
-214 -34
-33 34 214
-215 -213
-215 -214
213 214 215
-216 33
-216 34
-33 -34 216
-217 212
-217 -215
-212 215 217
-218 -212
-218 215
212 -215 218
-219 -217
-219 -218
217 218 219
-220 -212
-220 -215
212 215 220
-221 -216
-221 -220
216 220 221
-222 -34
-222 35
34 -35 222
-223 34
-223 -35
-34 35 223
-224 -222
-224 -223
222 223 224
-225 34
-225 35
-34 -35 225
-226 221
-226 -224
-221 224 226
-227 -221
-227 224
221 -224 227
-228 -226
-228 -227
226 227 228
-229 -221
-229 -224
221 224 229
-230 -225
-230 -229
225 229 230
-231 -35
-231 36
35 -36 231
-232 35
-232 -36
-35 36 232
-233 -231
-233 -232
231 232 233
-234 35
-234 36
-35 -36 234
-235 230
-235 -233
-230 233 235
-236 -230
-236 233
230 -233 236
-237 -235
-237 -236
235 236 237
-238 -230
-238 -233
230 233 238
-239 -234
-239 -238
234 238 239
-240 -36
-240 37
36 -37 240
-241 36
-241 -37
-36 37 241
-242 -240
-242 -241
240 241 242
-243 36
-243 37
-36 -37 243
-244 239
-244 -242
-239 242 244
-245 -239
-245 242
239 -242 245
-246 -244
-246 -245
244 245 246
-247 -239
-247 -242
239 242 247
-248 -243
-248 -247
243 247 248
-249 -37
-249 38
37 -38 249
-250 37
-250 -38
-37 38 250
-251 -249
-251 -250
249 250 251
-252 37
-252 38
-37 -38 252
-253 248
-253 -251
-248 251 253
-254 -248
-254 251
248 -251 254
-255 -253
-255 -254
253 254 255
-256 -248
-256 -251
248 251 256
-257 -252
-257 -256
252 256 257
-258 -38
-258 39
38 -39 258
-259 38
-259 -39
-38 39 259
-260 -258
-260 -259
258 259 260
-261 38
-261 39
-38 -39 261
-262 257
-262 -260
-257 260 262
-263 -257
-263 260
257 -260 263
-264 -262
-264 -263
262 263 264
-265 -257
-265 -260
257 260 265
-266 -261
-266 -265
261 265 266
-267 -39
-267 40
39 -40 267
-268 39
-268 -40
-39 40 268
-269 -267
-269 -268
267 268 269
-270 39
-270 40
-39 -40 270
-271 266
-271 -269
-266 269 271
-272 -266
-272 269
266 -269 272
-273 -271
-273 -272
271 272 273
-274 -266
-274 -269
266 269 274
-275 -270
-275 -274
270 274 275
-276 -40
-276 41
40 -41 276
-277 40
-277 -41
-40 41 277
-278 -276
-278 -277
276 277 278
-279 40
-279 41
-40 -41 279
-280 275
-280 -278
-275 278 280
-281 -275
-281 278
275 -278 281
-282 -280
-282 -281
280 281 282
-283 -275
-283 -278
275 278 283
-284 -279
-284 -283
279 283 284
-285 -41
-285 42
41 -42 285
-286 41
-286 -42
-41 42 286
-287 -285
-287 -286
285 286 287
-288 41
-288 42
-41 -42 288
-289 284
-289 -287
-284 287 289
-290 -284
-290 287
284 -287 290
-291 -289
-291 -290
289 290 291
-292 -284
-292 -287
284 287 292
-293 -288
-293 -292
288 292 293
-294 -42
-294 43
42 -43 294
-295 42
-295 -43
-42 43 295
-296 -294
-296 -295
294 295 296
-297 42
-297 43
-42 -43 297
-298 293
-298 -296
-293 296 298
-299 -293
-299 296
293 -296 299
-300 -298
-300 -299
298 299 300
-301 -293
-301 -296
293 296 301
-302 -297
-302 -301
297 301 302
-303 -43
-303 44
43 -44 303
-304 43
-304 -44
-43 44 304
-305 -303
-305 -304
303 304 305
-306 43
-306 44
-43 -44 306
-307 302
-307 -305
-302 305 307
-308 -302
-308 305
302 -305 308
-309 -307
-309 -308
307 308 309
-310 -302
-310 -305
302 305 310
-311 -306
-311 -310
306 310 311
-312 -44
-312 45
44 -45 312
-313 44
-313 -45
-44 45 313
-314 -312
-314 -313
312 313 314
-315 44
-315 45
-44 -45 315
-316 311
-316 -314
-311 314 316
-317 -311
-317 314
311 -314 317
-318 -316
-318 -317
316 317 318
-319 -311
-319 -314
311 314 319
-320 -315
-320 -319
315 319 320
-321 -45
-321 46
45 -46 321
-322 45
-322 -46
-45 46 322
-323 -321
-323 -322
321 322 323
-324 45
-324 46
-45 -46 324
-325 320
-325 -323
-320 323 325
-326 -320
-326 323
320 -323 326
-327 -325
-327 -326
325 326 327
-328 -320
-328 -323
320 323 328
-329 -324
-329 -328
324 328 329
-330 -46
-330 47
46 -47 330
-331 46
-331 -47
-46 47 331
-332 -330
-332 -331
330 331 332
-333 46
-333 47
-46 -47 333
-334 329
-334 -332
-329 332 334
-335 -329
-335 332
329 -332 335
-336 -334
-336 -335
334 335 336
-337 -329
-337 -332
329 332 337
-338 -333
-338 -337
333 337 338
-339 -47
-339 48
47 -48 339
-340 47
-340 -48
-47 48 340
-341 -339
-341 -340
339 340 341
-342 47
-342 48
-47 -48 342
-343 338
-343 -341
-338 341 343
-344 -338
-344 341
338 -341 344
-345 -343
-345 -344
343 344 345
-346 -338
-346 -341
338 341 346
-347 -342
-347 -346
342 346 347
-348 -48
-348 49
48 -49 348
-349 48
-349 -49
-48 49 349
-350 -348
-350 -349
348 349 350
-351 48
-351 49
-48 -49 351
-352 347
-352 -350
-347 350 352
-353 -347
-353 350
347 -350 353
-354 -352
-354 -353
352 353 354
-355 -347
-355 -350
347 350 355
-356 -351
-356 -355
351 355 356
-357 -49
-357 50
49 -50 357
-358 49
-358 -50
-49 50 358
-359 -357
-359 -358
357 358 359
-360 49
-360 50
-49 -50 360
-361 356
-361 -359
-356 359 361
-362 -356
-362 359
356 -359 362
-363 -361
-363 -362
361 362 363
-364 -356
-364 -359
356 359 364
-365 -360
-365 -364
360 364 365
-366 -50
-366 51
50 -51 366
-367 50
-367 -51
-50 51 367
-368 -366
-368 -367
366 367 368
-369 50
-369 51
-50 -51 369
-370 365
-370 -368
-365 368 370
-371 -365
-371 368
365 -368 371
-372 -370
-372 -371
370 371 372
-373 -365
-373 -368
365 368 373
-374 -369
-374 -373
369 373 374
-375 -51
-375 52
51 -52 375
-376 51
-376 -52
-51 52 376
-377 -375
-377 -376
375 376 377
-378 51
-378 52
-51 -52 378
-379 374
-379 -377
-374 377 379
-380 -374
-380 377
374 -377 380
-381 -379
-381 -380
379 380 381
-382 -374
-382 -377
374 377 382
-383 -378
-383 -382
378 382 383
-384 -52
-384 53
52 -53 384
-385 52
-385 -53
-52 53 385
-386 -384
-386 -385
384 385 386
-387 52
-387 53
-52 -53 387
-388 383
-388 -386
-383 386 388
-389 -383
-389 386
383 -386 389
-390 -388
-390 -389
388 389 390
-391 -383
-391 -386
383 386 391
-392 -387
-392 -391
387 391 392
-393 19
-393 -93
-19 93 393
-394 -19
-394 21
19 -21 394
-395 -393
-395 -394
393 394 395
-396 19
-396 -102
-19 102 396
-397 -19
-397 22
19 -22 397
-398 -396
-398 -397
396 397 398
-399 19
-399 -111
-19 111 399
-400 -19
-400 23
19 -23 400
-401 -399
-401 -400
399 400 401
-402 19
-402 -120
-19 120 402
-403 -19
-403 24
19 -24 403
-404 -402
-404 -403
402 403 404
-405 19
-405 -129
-19 129 405
-406 -19
-406 25
19 -25 406
-407 -405
-407 -406
405 406 407
-408 19
-408 -138
-19 138 408
-409 -19
-409 26
19 -26 409
-410 -408
-410 -409
408 409 410
-411 19
-411 -147
-19 147 411
-412 -19
-412 27
19 -27 412
-413 -411
-413 -412
411 412 413
-414 19
-414 -156
-19 156 414
-415 -19
-415 28
19 -28 415
-416 -414
-416 -415
414 415 416
-417 19
-417 -165
-19 165 417
-418 -19
-418 29
19 -29 418
-419 -417
-419 -418
417 418 419
-420 19
-420 -174
-19 174 420
-421 -19
-421 30
19 -30 421
-422 -420
-422 -421
420 421 422
-423 19
-423 -183
-19 183 423
-424 -19
-424 31
19 -31 424
-425 -423
-425 -424
423 424 425
-426 19
-426 -192
-19 192 426
-427 -19
-427 32
19 -32 427
-428 -426
-428 -427
426 427 428
-429 19
-429 -201
-19 201 429
-430 -19
-430 33
19 -33 430
-431 -429
-431 -430
429 430 431
-432 19
-432 -210
-19 210 432
-433 -19
-433 34
19 -34 433
-434 -432
-434 -433
432 433 434
-435 19
-435 -219
-19 219 435
-436 -19
-436 35
19 -35 436
-437 -435
-437 -436
435 436 437
-438 19
-438 -228
-19 228 438
-439 -19
-439 36
19 -36 439
-440 -438
-440 -439
438 439 440
-441 19
-441 -237
-19 237 441
-442 -19
-442 37
19 -37 442
-443 -441
-443 -442
441 442 443
-444 19
-444 -246
-19 246 444
-445 -19
-445 38
19 -38 445
-446 -444
-446 -445
444 445 446
-447 19
-447 -255
-19 255 447
-448 -19
-448 39
19 -39 448
-449 -447
-449 -448
447 448 449
-450 19
-450 -264
-19 264 450
-451 -19
-451 40
19 -40 451
-452 -450
-452 -451
450 451 452
-453 19
-453 -273
-19 273 453
-454 -19
-454 41
19 -41 454
-455 -453
-455 -454
453 454 455
-456 19
-456 -282
-19 282 456
-457 -19
-457 42
19 -42 457
-458 -456
-458 -457
456 457 458
-459 19
-459 -291
-19 291 459
-460 -19
-460 43
19 -43 460
-461 -459
-461 -460
459 460 461
-462 19
-462 -300
-19 300 462
-463 -19
-463 44
19 -44 463
-464 -462
-464 -463
462 463 464
-465 19
-465 -309
-19 309 465
-466 -19
-466 45
19 -45 466
-467 -465
-467 -466
465 466 467
-468 19
-468 -318
-19 318 468
-469 -19
-469 46
19 -46 469
-470 -468
-470 -469
468 469 470
-471 19
-471 -327
-19 327 471
-472 -19
-472 47
19 -47 472
-473 -471
-473 -472
471 472 473
-474 19
-474 -336
-19 336 474
-475 -19
-475 48
19 -48 475
-476 -474
-476 -475
474 475 476
-477 19
-477 -345
-19 345 477
-478 -19
-478 49
19 -49 478
-479 -477
-479 -478
477 478 479
-480 19
-480 -354
-19 354 480
-481 -19
-481 50
19 -50 481
-482 -480
-482 -481
480 481 482
-483 19
-483 -363
-19 363 483
-484 -19
-484 51
19 -51 484
-485 -483
-485 -484
483 484 485
-486 19
-486 -372
-19 372 486
-487 -19
-487 52
19 -52 487
-488 -486
-488 -487
486 487 488
-489 19
-489 -381
-19 381 489
-490 -19
-490 53
19 -53 490
-491 -489
-491 -490
489 490 491
-492 19
-492 -390
-19 390 492
-493 1
-493 86
-1 -86 493
-494 -86
-494 87
86 -87 494
-495 -493
-495 -494
493 494 495
-496 2
-496 86
-2 -86 496
-497 -86
-497 -395
86 395 497
-498 -496
-498 -497
496 497 498
-499 3
-499 86
-3 -86 499
-500 -86
-500 -398
86 398 500
-501 -499
-501 -500
499 500 501
-502 4
-502 86
-4 -86 502
-503 -86
-503 -401
86 401 503
-504 -502
-504 -503
502 503 504
-505 5
-505 86
-5 -86 505
-506 -86
-506 -404
86 404 506
-507 -505
-507 -506
505 506 507
-508 6
-508 86
-6 -86 508
-509 -86
-509 -407
86 407 509
-510 -508
-510 -509
508 509 510
-511 7
-511 86
-7 -86 511
-512 -86
-512 -410
86 410 512
-513 -511
-513 -512
511 512 513
-514 8
-514 86
-8 -86 514
-515 -86
-515 -413
86 413 515
-516 -514
-516 -515
514 515 516
-517 9
-517 86
-9 -86 517
-518 -86
-518 -416
86 416 518
-519 -517
-519 -518
517 518 519
-520 10
-520 86
-10 -86 520
-521 -86
-521 -419
86 419 521
-522 -520
-522 -521
520 521 522
-523 11
-523 86
-11 -86 523
-524 -86
-524 -422
86 422 524
-525 -523
-525 -524
523 524 525
-526 12
-526 86
-12 -86 526
-527 -86
-527 -425
86 425 527
-528 -526
-528 -527
526 527 528
-529 13
-529 86
-13 -86 529
-530 -86
-530 -428
86 428 530
-531 -529
-531 -530
529 530 531
-532 14
-532 86
-14 -86 532
-533 -86
-533 -431
86 431 533
-534 -532
-534 -533
532 533 534
-535 15
-535 86
-15 -86 535
-536 -86
-536 -434
86 434 536
-537 -535
-537 -536
535 536 537
-538 16
-538 86
-16 -86 538
-539 -86
-539 -437
86 437 539
-540 -538
-540 -539
538 539 540
-541 17
-541 86
-17 -86 541
-542 -86
-542 -440
86 440 542
-543 -541
-543 -542
541 542 543
-544 18
-544 86
-18 -86 544
-545 -86
-545 -443
86 443 545
-546 -544
-546 -545
544 545 546
-547 -86
-547 -446
86 446 547
-548 -86
-548 -449
86 449 548
-549 -86
-549 -452
86 452 549
-550 -86
-550 -455
86 455 550
-551 -86
-551 -458
86 458 551
-552 -86
-552 -461
86 461 552
-553 -86
-553 -464
86 464 553
-554 -86
-554 -467
86 467 554
-555 -86
-555 -470
86 470 555
-556 -86
-556 -473
86 473 556
-557 -86
-557 -476
86 476 557
-558 -86
-558 -479
86 479 558
-559 -86
-559 -482
86 482 559
-560 -86
-560 -485
86 485 560
-561 -86
-561 -488
86 488 561
-562 -86
-562 -491
86 491 562
-563 -86
-563 492
86 -492 563
-564 -53
-564 392
53 -392 564
-565 19
-565 -564
-19 564 565
565
